
Gurobi 10.0.1 (linux64) logging started Sun Nov 26 15:52:05 2023

Set parameter LogFile to value "ArtificialInstance/ExperimentV2/S2T4K2/BaRo/gurobi91.txt"
Gurobi Optimizer version 10.0.1 build v10.0.1rc0 (linux64)

CPU model: AMD EPYC 7H12 64-Core Processor, instruction set [SSE2|AVX|AVX2]
Thread count: 128 physical cores, 128 logical processors, using up to 32 threads

Academic license 656792 - for non-commercial use only - registered to b.___@student.vu.nl
Optimize a model with 2052 rows, 3121 columns and 10722 nonzeros
Model fingerprint: 0xbb917ab0
Variable types: 1 continuous, 3120 integer (3120 binary)
Coefficient statistics:
  Matrix range     [1e+00, 4e+01]
  Objective range  [1e+00, 2e+01]
  Bounds range     [1e+00, 1e+00]
  RHS range        [1e+00, 1e+00]
Found heuristic solution: objective 504.6200437
Presolve time: 0.02s
Presolved: 2052 rows, 3121 columns, 10722 nonzeros
Variable types: 1 continuous, 3120 integer (3120 binary)

Root relaxation: objective 3.914917e+01, 1788 iterations, 0.05 seconds (0.04 work units)

    Nodes    |    Current Node    |     Objective Bounds      |     Work
 Expl Unexpl |  Obj  Depth IntInf | Incumbent    BestBd   Gap | It/Node Time

     0     0   39.14917    0  294  504.62004   39.14917  92.2%     -    0s
H    0     0                     211.1689329   39.14917  81.5%     -    0s
H    0     0                     183.1564523   39.14917  78.6%     -    0s
H    0     0                      72.3032789   39.14917  45.9%     -    0s
     0     0   43.18072    0  496   72.30328   43.18072  40.3%     -    0s
H    0     0                      65.4379943   43.18072  34.0%     -    0s
H    0     0                      61.6660841   46.88760  24.0%     -    0s
H    0     0                      57.5184891   46.88760  18.5%     -    0s
     0     0   46.88760    0  443   57.51849   46.88760  18.5%     -    0s
     0     0   46.88760    0  444   57.51849   46.88760  18.5%     -    0s
     0     0   48.49812    0  499   57.51849   48.49812  15.7%     -    0s
H    0     0                      57.2460619   48.49812  15.3%     -    0s
     0     0   48.80515    0  582   57.24606   48.80515  14.7%     -    0s
     0     0   48.80515    0  586   57.24606   48.80515  14.7%     -    0s
     0     0   50.38796    0  465   57.24606   50.38796  12.0%     -    0s
     0     0   50.42238    0  500   57.24606   50.42238  11.9%     -    0s
     0     0   50.43655    0  504   57.24606   50.43655  11.9%     -    0s
     0     0   50.43655    0  504   57.24606   50.43655  11.9%     -    0s
     0     0   50.88480    0  576   57.24606   50.88480  11.1%     -    0s
     0     0   51.47155    0  567   57.24606   51.47155  10.1%     -    0s
     0     0   51.47155    0  592   57.24606   51.47155  10.1%     -    0s
     0     0   52.39925    0  653   57.24606   52.39925  8.47%     -    0s
     0     0   52.42011    0  661   57.24606   52.42011  8.43%     -    0s
     0     0   52.42011    0  627   57.24606   52.42011  8.43%     -    0s
     0     0   52.48317    0  536   57.24606   52.48317  8.32%     -    1s
     0     0   52.52938    0  562   57.24606   52.52938  8.24%     -    1s
     0     0   52.52938    0  564   57.24606   52.52938  8.24%     -    1s
     0     0   53.14275    0  547   57.24606   53.14275  7.17%     -    1s
     0     0   54.30448    0  600   57.24606   54.30448  5.14%     -    1s
     0     0   54.50159    0  572   57.24606   54.50159  4.79%     -    1s
     0     0   57.24606    0  597   57.24606   57.24606  0.00%     -    1s

Cutting planes:
  Gomory: 4
  Zero half: 71
  RLT: 81

Explored 1 nodes (9322 simplex iterations) in 1.14 seconds (0.75 work units)
Thread count was 32 (of 128 available processors)

Solution count 8: 57.2461 57.5185 61.6661 ... 504.62

Optimal solution found (tolerance 1.00e-04)
Best objective 5.724606191510e+01, best bound 5.724606191510e+01, gap 0.0000%
